c User generated cnf file
p cnf 11 46
5 3 -3 0 
-2 8 9 0 
8 -5 4 0 
-1 1 3 0 
7 -5 6 0 
-2 5 11 0 
10 -2 2 0 
1 7 -6 0 
11 5 -7 0 
4 -8 2 0 
10 10 -1 0 
1 8 -9 0 
-9 7 1 0 
8 -8 2 0 
1 -2 6 0 
10 -9 1 0 
-8 11 10 0 
8 7 -10 0 
4 3 -11 0 
-2 11 1 0 
1 11 -5 0 
7 -8 3 0 
10 9 -2 0 
4 4 -1 0 
11 -3 6 0 
6 -5 4 0 
3 10 -7 0 
7 -10 1 0 
7 2 -7 0 
10 4 -3 0 
9 8 -7 0 
8 7 -2 0 
-11 3 8 0 
-10 6 7 0 
3 4 -8 0 
4 10 -2 0 
-5 5 8 0 
-9 6 3 0 
-7 5 4 0 
10 2 -8 0 
6 -7 11 0 
2 -3 3 0 
10 4 -9 0 
-4 9 10 0 
8 -2 10 0 
11 3 -8 0 
